branch-and-cut/util/resultados/C/c20.sol
735.0
294
1 172
1 199
1 344
1 440
1 443
1 216
1 275
1 52
1 236
1 156
1 264
1 247
1 428
1 26
1 153
1 88
1 141
1 55
1 68
1 231
1 271
1 256
1 168
1 345
1 100
1 281
1 144
1 303
1 47
1 215
2 39
2 180
2 218
2 102
2 194
2 149
2 448
2 174
2 34
2 192
2 162
2 232
2 297
3 116
3 306
3 384
3 250
3 176
3 329
3 190
3 452
3 97
3 309
3 489
3 266
3 128
3 196
4 344
4 456
4 455
4 415
4 398
5 413
5 211
5 437
5 178
5 139
6 223
6 351
6 134
6 125
6 467
6 413
6 10
7 50
7 301
7 475
7 460
7 473
7 38
7 412
8 243
8 456
8 409
8 278
8 333
9 442
9 464
9 214
9 355
10 259
10 86
11 68
11 335
14 266
14 374
14 482
15 180
17 57
17 241
19 209
19 134
19 358
20 236
21 32
21 461
22 434
22 303
26 458
26 399
27 116
28 39
30 187
33 334
33 54
34 276
35 302
35 87
37 333
39 213
46 311
47 392
50 74
52 73
53 92
53 382
55 402
56 359
56 57
61 305
61 107
64 253
66 463
66 153
73 185
75 190
75 479
76 380
76 174
77 472
79 289
80 266
81 410
81 349
82 171
82 306
86 159
87 284
87 287
87 443
90 111
90 144
92 324
94 172
96 327
97 195
100 462
102 112
105 344
105 253
107 473
108 133
108 242
110 198
112 141
116 203
122 133
122 468
123 244
125 354
126 355
126 300
127 392
128 188
129 187
129 244
131 329
135 232
138 442
139 318
140 477
140 191
140 217
147 275
149 290
150 245
150 242
152 265
152 375
154 188
155 392
155 400
155 365
156 233
158 477
158 255
161 374
162 416
164 281
168 311
169 211
173 448
178 356
185 230
187 336
189 247
191 435
194 317
196 330
198 458
199 377
199 396
200 380
203 493
204 338
204 488
204 478
205 475
208 244
214 406
215 331
216 323
218 319
225 335
226 256
229 245
229 461
231 420
240 496
241 435
242 339
243 423
247 494
253 450
255 327
259 261
260 398
261 285
264 472
265 268
268 359
268 438
271 369
272 282
273 278
274 384
282 339
288 440
289 473
301 465
304 493
304 376
305 450
308 416
309 471
311 447
324 375
324 390
326 358
327 350
327 443
331 385
334 338
336 491
339 390
340 420
341 447
347 488
348 385
351 386
355 421
355 457
365 491
369 488
372 438
372 496
372 426
376 473
381 409
391 435
405 463
405 453
408 482
410 452
412 498
421 488
428 485
430 458
432 467
437 458
446 464
454 460
471 480
474 491
