branch-and-cut/util/resultados/C/c20.log
Set parameter Username
Academic license - for non-commercial use only - expires 2024-12-10
Set parameter LazyConstraints to value 1
Set parameter TimeLimit to value 600
Gurobi Optimizer version 10.0.0 build v10.0.0rc2 (linux64)

CPU model: Intel(R) Core(TM) i5-4590 CPU @ 3.30GHz, instruction set [SSE2|AVX|AVX2]
Thread count: 4 physical cores, 4 logical processors, using up to 4 threads

Optimize a model with 50250 rows, 12500 columns and 62510 nonzeros
Model fingerprint: 0xc604a50f
Variable types: 0 continuous, 12500 integer (12500 binary)
Coefficient statistics:
  Matrix range     [1e+00, 1e+00]
  Objective range  [1e+00, 1e+01]
  Bounds range     [1e+00, 1e+00]
  RHS range        [1e+00, 1e+00]
Presolve removed 50000 rows and 0 columns
Presolve time: 0.02s
Presolved: 250 rows, 12500 columns, 12510 nonzeros
Variable types: 0 continuous, 12500 integer (12500 binary)

Root relaxation: objective 1.425000e+02, 363 iterations, 0.00 seconds (0.00 work units)

    Nodes    |    Current Node    |     Objective Bounds      |     Work
 Expl Unexpl |  Obj  Depth IntInf | Incumbent    BestBd   Gap | It/Node Time

     0     0  142.50000    0    3          -  142.50000      -     -    2s
     0     0  259.00000    0    -          -  259.00000      -     -    6s
     0     0  259.00000    0    -          -  259.00000      -     -    6s
     0     0  259.00000    0    -          -  259.00000      -     -    7s
H    0     0                     947.0000000  259.00000  72.7%     -    7s
     0     0  259.00000    0    5  947.00000  259.00000  72.7%     -    7s
     0     0  259.00000    0    5  947.00000  259.00000  72.7%     -   10s
     0     0  259.00000    0    -  947.00000  259.00000  72.7%     -   12s
     0     0  259.00000    0    -  947.00000  259.00000  72.7%     -   12s
     0     0  259.00000    0    -  947.00000  259.00000  72.7%     -   13s
     0     0  259.00000    0    -  947.00000  259.00000  72.7%     -   13s
     0     0  259.00000    0    -  947.00000  259.00000  72.7%     -   13s
     0     0  259.00000    0    -  947.00000  259.00000  72.7%     -   14s
H    0     0                     788.0000000  259.00000  67.1%     -   14s
     0     0  259.00000    0    6  788.00000  259.00000  67.1%     -   14s
H    0     0                     764.0000000  259.00000  66.1%     -   15s
H    0     2                     741.0000000  259.00000  65.0%     -   22s
     0     2  259.00000    0    7  741.00000  259.00000  65.0%     -   22s
    10     5  259.00000    4    4  741.00000  259.00000  65.0%   1.6   28s
    16     8  259.00000    3    7  741.00000  259.00000  65.0%   1.6   31s
    22     3  259.00000    5    -  741.00000  259.00000  65.0%   1.4   35s
    29     7  259.00000    5    -  741.00000  259.00000  65.0%   1.4   40s
    44    20  259.00000    4    -  741.00000  259.00000  65.0%   1.8   49s
H   54    23                     738.0000000  259.00000  64.9%   1.8   53s
    70    54  259.00000    8    4  738.00000  259.00000  64.9%   1.9   58s
    97    65  259.00000   10    -  738.00000  259.00000  64.9%   1.8   68s
   107   115  259.00000    3    -  738.00000  259.00000  64.9%   1.8   71s
   121   125  259.00000   17    -  738.00000  259.00000  64.9%   1.7   80s
   135   130  259.00000   14    5  738.00000  259.00000  64.9%   1.7   85s
   185   224  259.00000   21    4  738.00000  259.00000  64.9%   1.6  100s
   207   224  259.00000   32    4  738.00000  259.00000  64.9%   1.6  106s
   218   224  259.00000   37    4  738.00000  259.00000  64.9%   1.6  110s
   292   252  259.00000   46    4  738.00000  259.00000  64.9%   1.5  133s
   401   289  259.00000   30    4  738.00000  259.00000  64.9%   1.6  171s
   419   357  259.00000   45    4  738.00000  259.00000  64.9%   1.7  177s
   428   358  259.00000   50    4  738.00000  259.00000  64.9%   1.7  180s
   446   358  259.00000   59    4  738.00000  259.00000  64.9%   1.7  185s
   464   361  259.00000   67    4  738.00000  259.00000  64.9%   1.7  192s
   516   386  259.00000   62    4  738.00000  259.00000  64.9%   1.7  207s
   525   390  259.00000   65    4  738.00000  259.00000  64.9%   1.7  210s
   677   454  259.00000   51    4  738.00000  259.00000  64.9%   1.8  261s
   695   463  259.00000   56    -  738.00000  259.00000  64.9%   1.8  267s
   708   467  259.00000   67    -  738.00000  259.00000  64.9%   1.8  272s
   716   474  259.00000    4    -  738.00000  259.00000  64.9%   1.8  276s
   724   478  259.00000    7    -  738.00000  259.00000  64.9%   1.8  280s
   740   484  259.00000   12    4  738.00000  259.00000  64.9%   1.8  287s
   748   487  259.00000   14    -  738.00000  259.00000  64.9%   1.8  290s
   764   503  259.00000   48    -  738.00000  259.00000  64.9%   1.8  295s
   780   514  259.00000   41    4  738.00000  259.00000  64.9%   1.8  300s
   804   530  259.00000   42    -  738.00000  259.00000  64.9%   1.8  307s
   820   545  259.00000   12    6  738.00000  259.00000  64.9%   1.9  312s
  1074   643  259.00000   61    6  738.00000  259.00000  64.9%   1.9  388s
  1082   643  259.00000   69    -  738.00000  259.00000  64.9%   1.9  390s
  1098   659  259.00000    8    7  738.00000  259.00000  64.9%   1.9  395s
  1251   667  259.00000   42    -  738.00000  259.00000  64.9%   1.9  442s
  1258   674  259.00000   52    -  738.00000  259.00000  64.9%   1.9  447s
  1272   688  259.00000   64    -  738.00000  259.00000  64.9%   1.9  451s
  1286   702  259.00000   37    -  738.00000  259.00000  64.9%   1.9  456s
  1300   716  259.00000   10    -  738.00000  259.00000  64.9%   1.9  460s
  1344   754  259.00000   39    -  738.00000  259.00000  64.9%   2.0  474s
  1351   761  259.00000   44    -  738.00000  259.00000  64.9%   2.0  476s
  1365   775  259.00000   10    6  738.00000  259.00000  64.9%   2.0  480s
  1496   599  259.00000   20    -  738.00000  259.00000  64.9%   2.0  521s
  1502   605  259.00000   69    -  738.00000  259.00000  64.9%   2.0  526s
  1514   617  259.00000   41    -  738.00000  259.00000  64.9%   2.0  532s
  1520   623  259.00000   79    -  738.00000  259.00000  64.9%   2.0  535s
  1532   635  259.00000   12    -  738.00000  259.00000  64.9%   2.0  542s
  1544   647  259.00000   45    -  738.00000  259.00000  64.9%   2.0  546s
H 1577   680                     735.0000000  259.00000  64.8%   2.1  560s
  1595   698  259.00000   55    -  735.00000  259.00000  64.8%   2.1  567s
  1607   710  259.00000   62    -  735.00000  259.00000  64.8%   2.1  571s
  1626   713  259.00000   84    -  735.00000  259.00000  64.8%   2.1  576s
  1638   725  259.00000   61    -  735.00000  259.00000  64.8%   2.1  580s
  1656   743  259.00000   52    -  735.00000  259.00000  64.8%   2.1  586s
  1668   755  259.00000    4    -  735.00000  259.00000  64.8%   2.1  590s
  1686   773  259.00000   53    -  735.00000  259.00000  64.8%   2.1  596s

Cutting planes:
  User: 1
  Lazy constraints: 187

Explored 1759 nodes (4284 simplex iterations) in 620.58 seconds (3.52 work units)
Thread count was 4 (of 4 available processors)

Solution count 6: 735 738 741 ... 947

Time limit reached
Best objective 7.350000000000e+02, best bound 2.590000000000e+02, gap 64.7619%

User-callback calls 4335, time in user-callback 609.07 sec
